(set-logic QF_S)
(declare-fun var0 () String)
(assert (RegexIn var0 (RegexConcat (RegexPlus (RegexUnion (Str2Reg "000") (Str2Reg "11"))) (RegexConcat (RegexPlus (RegexStar (Str2Reg "2"))) (RegexConcat (RegexStar (RegexUnion (Str2Reg "333") (Str2Reg "4"))) (RegexConcat (RegexPlus (RegexStar (Str2Reg "55"))) (RegexConcat (RegexUnion (RegexStar (Str2Reg "6")) (RegexStar (Str2Reg "7"))) (RegexConcat (RegexStar (RegexPlus (Str2Reg "8"))) (RegexConcat (RegexPlus (RegexUnion (Str2Reg "999") (Str2Reg "aaa"))) (RegexConcat (RegexPlus (RegexStar (Str2Reg "bb"))) (RegexConcat (RegexPlus (RegexUnion (Str2Reg "ccc") (Str2Reg "d"))) (RegexUnion (RegexPlus (Str2Reg "eee")) (RegexPlus (Str2Reg "f"))))))))))))))
(assert (<= 101 (Length var0)))
(check-sat)